1
1000
60
498 1
498 1
494 1
482 1
482 1
479 1
476 1
464 1
459 1
436 1
430 1
429 1
401 1
400 1
398 1
390 1
378 1
369 1
367 1
362 1
354 1
352 1
350 1
350 1
345 1
339 1
328 1
326 1
308 1
305 1
288 1
288 1
284 1
281 1
280 1
279 1
277 1
276 1
271 1
268 1
267 1
267 1
267 1
266 1
263 1
262 1
261 1
261 1
260 1
260 1
259 1
256 1
254 1
252 1
252 1
251 1
251 1
250 1
250 1
250 1
